c map6.map
p cnf 288 2057
-3 -4 0
-3 -5 0
-4 -5 0
-1 -2 0
-2 -5 0
-1 -4 0
-5 1 0
-4 2 0
-39 -40 0
-39 -41 0
-40 -41 0
-37 -38 0
-38 -41 0
-37 -40 0
-41 37 0
-40 38 0
-75 -76 0
-75 -77 0
-76 -77 0
-73 -74 0
-74 -77 0
-73 -76 0
-77 73 0
-76 74 0
-111 -112 0
-111 -113 0
-112 -113 0
-109 -110 0
-110 -113 0
-109 -112 0
-113 109 0
-112 110 0
-147 -148 0
-147 -149 0
-148 -149 0
-145 -146 0
-146 -149 0
-145 -148 0
-149 145 0
-148 146 0
-183 -184 0
-183 -185 0
-184 -185 0
-181 -182 0
-182 -185 0
-181 -184 0
-185 181 0
-184 182 0
-219 -220 0
-219 -221 0
-220 -221 0
-217 -218 0
-218 -221 0
-217 -220 0
-221 217 0
-220 218 0
-255 -256 0
-255 -257 0
-256 -257 0
-253 -254 0
-254 -257 0
-253 -256 0
-257 253 0
-256 254 0
-9 -10 0
-9 -11 0
-10 -11 0
-7 -8 0
-8 -11 0
-7 -10 0
-11 7 0
-10 8 0
-45 -46 0
-45 -47 0
-46 -47 0
-43 -44 0
-44 -47 0
-43 -46 0
-47 43 0
-46 44 0
-81 -82 0
-81 -83 0
-82 -83 0
-79 -80 0
-80 -83 0
-79 -82 0
-83 79 0
-82 80 0
-117 -118 0
-117 -119 0
-118 -119 0
-115 -116 0
-116 -119 0
-115 -118 0
-119 115 0
-118 116 0
-153 -154 0
-153 -155 0
-154 -155 0
-151 -152 0
-152 -155 0
-151 -154 0
-155 151 0
-154 152 0
-189 -190 0
-189 -191 0
-190 -191 0
-187 -188 0
-188 -191 0
-187 -190 0
-191 187 0
-190 188 0
-225 -226 0
-225 -227 0
-226 -227 0
-223 -224 0
-224 -227 0
-223 -226 0
-227 223 0
-226 224 0
-261 -262 0
-261 -263 0
-262 -263 0
-259 -260 0
-260 -263 0
-259 -262 0
-263 259 0
-262 260 0
-15 -16 0
-15 -17 0
-16 -17 0
-13 -14 0
-14 -17 0
-13 -16 0
-17 13 0
-16 14 0
-51 -52 0
-51 -53 0
-52 -53 0
-49 -50 0
-50 -53 0
-49 -52 0
-53 49 0
-52 50 0
-87 -88 0
-87 -89 0
-88 -89 0
-85 -86 0
-86 -89 0
-85 -88 0
-89 85 0
-88 86 0
-123 -124 0
-123 -125 0
-124 -125 0
-121 -122 0
-122 -125 0
-121 -124 0
-125 121 0
-124 122 0
-159 -160 0
-159 -161 0
-160 -161 0
-157 -158 0
-158 -161 0
-157 -160 0
-161 157 0
-160 158 0
-195 -196 0
-195 -197 0
-196 -197 0
-193 -194 0
-194 -197 0
-193 -196 0
-197 193 0
-196 194 0
-231 -232 0
-231 -233 0
-232 -233 0
-229 -230 0
-230 -233 0
-229 -232 0
-233 229 0
-232 230 0
-267 -268 0
-267 -269 0
-268 -269 0
-265 -266 0
-266 -269 0
-265 -268 0
-269 265 0
-268 266 0
-21 -22 0
-21 -23 0
-22 -23 0
-19 -20 0
-20 -23 0
-19 -22 0
-23 19 0
-22 20 0
-57 -58 0
-57 -59 0
-58 -59 0
-55 -56 0
-56 -59 0
-55 -58 0
-59 55 0
-58 56 0
-93 -94 0
-93 -95 0
-94 -95 0
-91 -92 0
-92 -95 0
-91 -94 0
-95 91 0
-94 92 0
-129 -130 0
-129 -131 0
-130 -131 0
-127 -128 0
-128 -131 0
-127 -130 0
-131 127 0
-130 128 0
-165 -166 0
-165 -167 0
-166 -167 0
-163 -164 0
-164 -167 0
-163 -166 0
-167 163 0
-166 164 0
-201 -202 0
-201 -203 0
-202 -203 0
-199 -200 0
-200 -203 0
-199 -202 0
-203 199 0
-202 200 0
-237 -238 0
-237 -239 0
-238 -239 0
-235 -236 0
-236 -239 0
-235 -238 0
-239 235 0
-238 236 0
-273 -274 0
-273 -275 0
-274 -275 0
-271 -272 0
-272 -275 0
-271 -274 0
-275 271 0
-274 272 0
-27 -28 0
-27 -29 0
-28 -29 0
-25 -26 0
-26 -29 0
-25 -28 0
-29 25 0
-28 26 0
-63 -64 0
-63 -65 0
-64 -65 0
-61 -62 0
-62 -65 0
-61 -64 0
-65 61 0
-64 62 0
-99 -100 0
-99 -101 0
-100 -101 0
-97 -98 0
-98 -101 0
-97 -100 0
-101 97 0
-100 98 0
-135 -136 0
-135 -137 0
-136 -137 0
-133 -134 0
-134 -137 0
-133 -136 0
-137 133 0
-136 134 0
-171 -172 0
-171 -173 0
-172 -173 0
-169 -170 0
-170 -173 0
-169 -172 0
-173 169 0
-172 170 0
-207 -208 0
-207 -209 0
-208 -209 0
-205 -206 0
-206 -209 0
-205 -208 0
-209 205 0
-208 206 0
-243 -244 0
-243 -245 0
-244 -245 0
-241 -242 0
-242 -245 0
-241 -244 0
-245 241 0
-244 242 0
-279 -280 0
-279 -281 0
-280 -281 0
-277 -278 0
-278 -281 0
-277 -280 0
-281 277 0
-280 278 0
-33 -34 0
-33 -35 0
-34 -35 0
-31 -32 0
-32 -35 0
-31 -34 0
-35 31 0
-34 32 0
-69 -70 0
-69 -71 0
-70 -71 0
-67 -68 0
-68 -71 0
-67 -70 0
-71 67 0
-70 68 0
-105 -106 0
-105 -107 0
-106 -107 0
-103 -104 0
-104 -107 0
-103 -106 0
-107 103 0
-106 104 0
-141 -142 0
-141 -143 0
-142 -143 0
-139 -140 0
-140 -143 0
-139 -142 0
-143 139 0
-142 140 0
-177 -178 0
-177 -179 0
-178 -179 0
-175 -176 0
-176 -179 0
-175 -178 0
-179 175 0
-178 176 0
-213 -214 0
-213 -215 0
-214 -215 0
-211 -212 0
-212 -215 0
-211 -214 0
-215 211 0
-214 212 0
-249 -250 0
-249 -251 0
-250 -251 0
-247 -248 0
-248 -251 0
-247 -250 0
-251 247 0
-250 248 0
-285 -286 0
-285 -287 0
-286 -287 0
-283 -284 0
-284 -287 0
-283 -286 0
-287 283 0
-286 284 0
-3 0
-4 0
-5 0
-4 0
-5 0
-3 0
-4 0
-5 0
-3 0
1 0
-2 0
-39 0
-9 0
-45 0
-40 0
-10 0
-46 0
-41 0
-11 0
-47 0
37 0
-38 0
7 0
-8 0
43 0
-44 0
-46 0
-47 0
-45 0
-46 0
-47 0
-45 0
3 39 75 9 81 15 51 87 0
-3 -39 0
-3 -75 0
-3 -9 0
-3 -81 0
-3 -15 0
-3 -51 0
-3 -87 0
-39 -75 0
-39 -9 0
-39 -81 0
-39 -15 0
-39 -51 0
-39 -87 0
-75 -9 0
-75 -81 0
-75 -15 0
-75 -51 0
-75 -87 0
-9 -81 0
-9 -15 0
-9 -51 0
-9 -87 0
-81 -15 0
-81 -51 0
-81 -87 0
-15 -51 0
-15 -87 0
-51 -87 0
4 40 76 10 82 16 52 88 0
-4 -40 0
-4 -76 0
-4 -10 0
-4 -82 0
-4 -16 0
-4 -52 0
-4 -88 0
-40 -76 0
-40 -10 0
-40 -82 0
-40 -16 0
-40 -52 0
-40 -88 0
-76 -10 0
-76 -82 0
-76 -16 0
-76 -52 0
-76 -88 0
-10 -82 0
-10 -16 0
-10 -52 0
-10 -88 0
-82 -16 0
-82 -52 0
-82 -88 0
-16 -52 0
-16 -88 0
-52 -88 0
5 41 77 11 83 17 53 0
5 41 77 11 83 17 89 0
5 41 77 11 83 53 89 0
5 41 77 11 17 53 89 0
5 41 77 83 17 53 89 0
5 41 11 83 17 53 89 0
5 77 11 83 17 53 89 0
41 77 11 83 17 53 89 0
-5 -41 -77 0
-5 -41 -11 0
-5 -41 -83 0
-5 -41 -17 0
-5 -41 -53 0
-5 -41 -89 0
-5 -77 -11 0
-5 -77 -83 0
-5 -77 -17 0
-5 -77 -53 0
-5 -77 -89 0
-5 -11 -83 0
-5 -11 -17 0
-5 -11 -53 0
-5 -11 -89 0
-5 -83 -17 0
-5 -83 -53 0
-5 -83 -89 0
-5 -17 -53 0
-5 -17 -89 0
-5 -53 -89 0
-41 -77 -11 0
-41 -77 -83 0
-41 -77 -17 0
-41 -77 -53 0
-41 -77 -89 0
-41 -11 -83 0
-41 -11 -17 0
-41 -11 -53 0
-41 -11 -89 0
-41 -83 -17 0
-41 -83 -53 0
-41 -83 -89 0
-41 -17 -53 0
-41 -17 -89 0
-41 -53 -89 0
-77 -11 -83 0
-77 -11 -17 0
-77 -11 -53 0
-77 -11 -89 0
-77 -83 -17 0
-77 -83 -53 0
-77 -83 -89 0
-77 -17 -53 0
-77 -17 -89 0
-77 -53 -89 0
-11 -83 -17 0
-11 -83 -53 0
-11 -83 -89 0
-11 -17 -53 0
-11 -17 -89 0
-11 -53 -89 0
-83 -17 -53 0
-83 -17 -89 0
-83 -53 -89 0
-17 -53 -89 0
73 0
-74 0
-79 0
80 0
13 0
-14 0
-49 0
50 0
-85 0
86 0
17 0
-16 0
-15 0
77 0
-76 0
-75 0
-10 0
-11 0
-9 0
-10 0
-11 0
-9 0
-3 0
-39 0
-45 0
-15 0
-51 0
-4 0
-40 0
-46 0
-16 0
-52 0
5 41 47 17 53 0
-5 -41 0
-5 -47 0
-5 -17 0
-5 -53 0
-41 -47 0
-41 -17 0
-41 -53 0
-47 -17 0
-47 -53 0
-17 -53 0
-52 0
-53 0
-51 0
-52 0
-53 0
-51 0
9 45 81 15 87 21 57 93 0
-9 -45 0
-9 -81 0
-9 -15 0
-9 -87 0
-9 -21 0
-9 -57 0
-9 -93 0
-45 -81 0
-45 -15 0
-45 -87 0
-45 -21 0
-45 -57 0
-45 -93 0
-81 -15 0
-81 -87 0
-81 -21 0
-81 -57 0
-81 -93 0
-15 -87 0
-15 -21 0
-15 -57 0
-15 -93 0
-87 -21 0
-87 -57 0
-87 -93 0
-21 -57 0
-21 -93 0
-57 -93 0
10 46 82 16 88 22 58 94 0
-10 -46 0
-10 -82 0
-10 -16 0
-10 -88 0
-10 -22 0
-10 -58 0
-10 -94 0
-46 -82 0
-46 -16 0
-46 -88 0
-46 -22 0
-46 -58 0
-46 -94 0
-82 -16 0
-82 -88 0
-82 -22 0
-82 -58 0
-82 -94 0
-16 -88 0
-16 -22 0
-16 -58 0
-16 -94 0
-88 -22 0
-88 -58 0
-88 -94 0
-22 -58 0
-22 -94 0
-58 -94 0
11 47 83 17 89 23 59 95 0
-11 -47 0
-11 -83 0
-11 -17 0
-11 -89 0
-11 -23 0
-11 -59 0
-11 -95 0
-47 -83 0
-47 -17 0
-47 -89 0
-47 -23 0
-47 -59 0
-47 -95 0
-83 -17 0
-83 -89 0
-83 -23 0
-83 -59 0
-83 -95 0
-17 -89 0
-17 -23 0
-17 -59 0
-17 -95 0
-89 -23 0
-89 -59 0
-89 -95 0
-23 -59 0
-23 -95 0
-59 -95 0
19 0
-20 0
55 0
-56 0
91 0
-92 0
-94 0
-95 0
-93 0
-94 0
-95 0
-93 0
-51 0
-87 0
-123 0
-57 0
-129 0
-63 0
-99 0
-135 0
52 88 124 58 130 64 100 136 0
-52 -88 0
-52 -124 0
-52 -58 0
-52 -130 0
-52 -64 0
-52 -100 0
-52 -136 0
-88 -124 0
-88 -58 0
-88 -130 0
-88 -64 0
-88 -100 0
-88 -136 0
-124 -58 0
-124 -130 0
-124 -64 0
-124 -100 0
-124 -136 0
-58 -130 0
-58 -64 0
-58 -100 0
-58 -136 0
-130 -64 0
-130 -100 0
-130 -136 0
-64 -100 0
-64 -136 0
-100 -136 0
-53 0
-89 0
-125 0
-59 0
-131 0
-65 0
-101 0
-137 0
-121 0
122 0
127 0
-128 0
61 0
-62 0
97 0
-98 0
-133 0
134 0
-136 0
-137 0
-135 0
-136 0
-137 0
-135 0
93 129 165 99 171 105 141 0
93 129 165 99 171 105 177 0
93 129 165 99 171 141 177 0
93 129 165 99 105 141 177 0
93 129 165 171 105 141 177 0
93 129 99 171 105 141 177 0
93 165 99 171 105 141 177 0
129 165 99 171 105 141 177 0
-93 -129 -165 0
-93 -129 -99 0
-93 -129 -171 0
-93 -129 -105 0
-93 -129 -141 0
-93 -129 -177 0
-93 -165 -99 0
-93 -165 -171 0
-93 -165 -105 0
-93 -165 -141 0
-93 -165 -177 0
-93 -99 -171 0
-93 -99 -105 0
-93 -99 -141 0
-93 -99 -177 0
-93 -171 -105 0
-93 -171 -141 0
-93 -171 -177 0
-93 -105 -141 0
-93 -105 -177 0
-93 -141 -177 0
-129 -165 -99 0
-129 -165 -171 0
-129 -165 -105 0
-129 -165 -141 0
-129 -165 -177 0
-129 -99 -171 0
-129 -99 -105 0
-129 -99 -141 0
-129 -99 -177 0
-129 -171 -105 0
-129 -171 -141 0
-129 -171 -177 0
-129 -105 -141 0
-129 -105 -177 0
-129 -141 -177 0
-165 -99 -171 0
-165 -99 -105 0
-165 -99 -141 0
-165 -99 -177 0
-165 -171 -105 0
-165 -171 -141 0
-165 -171 -177 0
-165 -105 -141 0
-165 -105 -177 0
-165 -141 -177 0
-99 -171 -105 0
-99 -171 -141 0
-99 -171 -177 0
-99 -105 -141 0
-99 -105 -177 0
-99 -141 -177 0
-171 -105 -141 0
-171 -105 -177 0
-171 -141 -177 0
-105 -141 -177 0
-94 0
-130 0
-166 0
-100 0
-172 0
-106 0
-142 0
-178 0
-95 0
-131 0
-167 0
-101 0
-173 0
-107 0
-143 0
-179 0
163 0
-164 0
-169 0
170 0
103 0
-104 0
-139 0
140 0
175 0
-176 0
-100 0
-101 0
-99 0
-100 0
-101 0
-99 0
57 93 129 63 135 69 105 0
57 93 129 63 135 69 141 0
57 93 129 63 135 105 141 0
57 93 129 63 69 105 141 0
57 93 129 135 69 105 141 0
57 93 63 135 69 105 141 0
57 129 63 135 69 105 141 0
93 129 63 135 69 105 141 0
-57 -93 -129 0
-57 -93 -63 0
-57 -93 -135 0
-57 -93 -69 0
-57 -93 -105 0
-57 -93 -141 0
-57 -129 -63 0
-57 -129 -135 0
-57 -129 -69 0
-57 -129 -105 0
-57 -129 -141 0
-57 -63 -135 0
-57 -63 -69 0
-57 -63 -105 0
-57 -63 -141 0
-57 -135 -69 0
-57 -135 -105 0
-57 -135 -141 0
-57 -69 -105 0
-57 -69 -141 0
-57 -105 -141 0
-93 -129 -63 0
-93 -129 -135 0
-93 -129 -69 0
-93 -129 -105 0
-93 -129 -141 0
-93 -63 -135 0
-93 -63 -69 0
-93 -63 -105 0
-93 -63 -141 0
-93 -135 -69 0
-93 -135 -105 0
-93 -135 -141 0
-93 -69 -105 0
-93 -69 -141 0
-93 -105 -141 0
-129 -63 -135 0
-129 -63 -69 0
-129 -63 -105 0
-129 -63 -141 0
-129 -135 -69 0
-129 -135 -105 0
-129 -135 -141 0
-129 -69 -105 0
-129 -69 -141 0
-129 -105 -141 0
-63 -135 -69 0
-63 -135 -105 0
-63 -135 -141 0
-63 -69 -105 0
-63 -69 -141 0
-63 -105 -141 0
-135 -69 -105 0
-135 -69 -141 0
-135 -105 -141 0
-69 -105 -141 0
-58 0
-94 0
-130 0
-64 0
-136 0
-70 0
-106 0
-142 0
59 95 131 65 137 71 107 143 0
-59 -95 0
-59 -131 0
-59 -65 0
-59 -137 0
-59 -71 0
-59 -107 0
-59 -143 0
-95 -131 0
-95 -65 0
-95 -137 0
-95 -71 0
-95 -107 0
-95 -143 0
-131 -65 0
-131 -137 0
-131 -71 0
-131 -107 0
-131 -143 0
-65 -137 0
-65 -71 0
-65 -107 0
-65 -143 0
-137 -71 0
-137 -107 0
-137 -143 0
-71 -107 0
-71 -143 0
-107 -143 0
67 0
-68 0
71 0
-70 0
-69 0
-178 0
-179 0
-177 0
-178 0
-179 0
-177 0
135 171 207 141 213 0
-135 -171 0
-135 -207 0
-135 -141 0
-135 -213 0
-171 -207 0
-171 -141 0
-171 -213 0
-207 -141 0
-207 -213 0
-141 -213 0
-136 0
-172 0
-208 0
-142 0
-214 0
-137 0
-173 0
-209 0
-143 0
-215 0
-205 0
206 0
211 0
-212 0
-214 0
-215 0
-213 0
-214 0
-215 0
-213 0
-171 0
-207 0
-243 0
-177 0
-249 0
172 208 244 178 250 0
-172 -208 0
-172 -244 0
-172 -178 0
-172 -250 0
-208 -244 0
-208 -178 0
-208 -250 0
-244 -178 0
-244 -250 0
-178 -250 0
-173 0
-209 0
-245 0
-179 0
-251 0
241 0
-242 0
-247 0
248 0
250 0
-251 0
-249 0
-244 0
-245 0
-243 0
-244 0
-245 0
-243 0
-201 0
-237 0
-273 0
-207 0
-279 0
-213 0
-249 0
-285 0
202 238 274 208 280 214 250 286 0
-202 -238 0
-202 -274 0
-202 -208 0
-202 -280 0
-202 -214 0
-202 -250 0
-202 -286 0
-238 -274 0
-238 -208 0
-238 -280 0
-238 -214 0
-238 -250 0
-238 -286 0
-274 -208 0
-274 -280 0
-274 -214 0
-274 -250 0
-274 -286 0
-208 -280 0
-208 -214 0
-208 -250 0
-208 -286 0
-280 -214 0
-280 -250 0
-280 -286 0
-214 -250 0
-214 -286 0
-250 -286 0
-203 0
-239 0
-275 0
-209 0
-281 0
-215 0
-251 0
-287 0
199 0
-200 0
235 0
-236 0
271 0
-272 0
277 0
-278 0
-283 0
284 0
-286 0
-287 0
-285 0
-286 0
-287 0
-285 0
-243 0
-279 0
-249 0
244 280 250 0
-244 -280 0
-244 -250 0
-280 -250 0
-245 0
-281 0
-251 0
-280 0
-281 0
-279 0
-280 0
-281 0
-279 0
-237 0
-273 0
-243 0
-249 0
-285 0
238 274 244 250 286 0
-238 -274 0
-238 -244 0
-238 -250 0
-238 -286 0
-274 -244 0
-274 -250 0
-274 -286 0
-244 -250 0
-244 -286 0
-250 -286 0
-239 0
-275 0
-245 0
-251 0
-287 0
-274 0
-275 0
-273 0
-274 0
-275 0
-273 0
-231 0
-267 0
-237 0
-243 0
-279 0
-232 0
-268 0
-238 0
-244 0
-280 0
-233 0
-269 0
-239 0
-245 0
-281 0
229 0
-230 0
265 0
-266 0
-268 0
-269 0
-267 0
-268 0
-269 0
-267 0
-225 0
-261 0
-231 0
-237 0
-273 0
226 262 232 238 274 0
-226 -262 0
-226 -232 0
-226 -238 0
-226 -274 0
-262 -232 0
-262 -238 0
-262 -274 0
-232 -238 0
-232 -274 0
-238 -274 0
-227 0
-263 0
-233 0
-239 0
-275 0
-223 0
224 0
-259 0
260 0
-232 0
-233 0
-231 0
-232 0
-233 0
-231 0
-189 0
-225 0
-261 0
-195 0
-267 0
-201 0
-237 0
-273 0
190 226 262 196 268 202 238 0
190 226 262 196 268 202 274 0
190 226 262 196 268 238 274 0
190 226 262 196 202 238 274 0
190 226 262 268 202 238 274 0
190 226 196 268 202 238 274 0
190 262 196 268 202 238 274 0
226 262 196 268 202 238 274 0
-190 -226 -262 0
-190 -226 -196 0
-190 -226 -268 0
-190 -226 -202 0
-190 -226 -238 0
-190 -226 -274 0
-190 -262 -196 0
-190 -262 -268 0
-190 -262 -202 0
-190 -262 -238 0
-190 -262 -274 0
-190 -196 -268 0
-190 -196 -202 0
-190 -196 -238 0
-190 -196 -274 0
-190 -268 -202 0
-190 -268 -238 0
-190 -268 -274 0
-190 -202 -238 0
-190 -202 -274 0
-190 -238 -274 0
-226 -262 -196 0
-226 -262 -268 0
-226 -262 -202 0
-226 -262 -238 0
-226 -262 -274 0
-226 -196 -268 0
-226 -196 -202 0
-226 -196 -238 0
-226 -196 -274 0
-226 -268 -202 0
-226 -268 -238 0
-226 -268 -274 0
-226 -202 -238 0
-226 -202 -274 0
-226 -238 -274 0
-262 -196 -268 0
-262 -196 -202 0
-262 -196 -238 0
-262 -196 -274 0
-262 -268 -202 0
-262 -268 -238 0
-262 -268 -274 0
-262 -202 -238 0
-262 -202 -274 0
-262 -238 -274 0
-196 -268 -202 0
-196 -268 -238 0
-196 -268 -274 0
-196 -202 -238 0
-196 -202 -274 0
-196 -238 -274 0
-268 -202 -238 0
-268 -202 -274 0
-268 -238 -274 0
-202 -238 -274 0
191 227 263 197 269 203 239 275 0
-191 -227 0
-191 -263 0
-191 -197 0
-191 -269 0
-191 -203 0
-191 -239 0
-191 -275 0
-227 -263 0
-227 -197 0
-227 -269 0
-227 -203 0
-227 -239 0
-227 -275 0
-263 -197 0
-263 -269 0
-263 -203 0
-263 -239 0
-263 -275 0
-197 -269 0
-197 -203 0
-197 -239 0
-197 -275 0
-269 -203 0
-269 -239 0
-269 -275 0
-203 -239 0
-203 -275 0
-239 -275 0
-187 0
188 0
193 0
-194 0
197 0
-196 0
-195 0
190 0
-191 0
-189 0
-238 0
-239 0
-237 0
-238 0
-239 0
-237 0
-195 0
-231 0
-267 0
-201 0
-273 0
-207 0
-243 0
-279 0
-196 0
-232 0
-268 0
-202 0
-274 0
-208 0
-244 0
-280 0
197 233 269 203 275 209 245 281 0
-197 -233 0
-197 -269 0
-197 -203 0
-197 -275 0
-197 -209 0
-197 -245 0
-197 -281 0
-233 -269 0
-233 -203 0
-233 -275 0
-233 -209 0
-233 -245 0
-233 -281 0
-269 -203 0
-269 -275 0
-269 -209 0
-269 -245 0
-269 -281 0
-203 -275 0
-203 -209 0
-203 -245 0
-203 -281 0
-275 -209 0
-275 -245 0
-275 -281 0
-209 -245 0
-209 -281 0
-245 -281 0
-202 0
-203 0
-201 0
-202 0
-203 0
-201 0
-159 0
-195 0
-231 0
-165 0
-237 0
-171 0
-207 0
-243 0
-160 0
-196 0
-232 0
-166 0
-238 0
-172 0
-208 0
-244 0
161 197 233 167 239 173 209 245 0
-161 -197 0
-161 -233 0
-161 -167 0
-161 -239 0
-161 -173 0
-161 -209 0
-161 -245 0
-197 -233 0
-197 -167 0
-197 -239 0
-197 -173 0
-197 -209 0
-197 -245 0
-233 -167 0
-233 -239 0
-233 -173 0
-233 -209 0
-233 -245 0
-167 -239 0
-167 -173 0
-167 -209 0
-167 -245 0
-239 -173 0
-239 -209 0
-239 -245 0
-173 -209 0
-173 -245 0
-209 -245 0
-157 0
158 0
-160 0
-161 0
-159 0
-160 0
-161 0
-159 0
-117 0
-153 0
-189 0
-123 0
-195 0
-129 0
-165 0
-201 0
118 154 190 124 196 130 166 202 0
-118 -154 0
-118 -190 0
-118 -124 0
-118 -196 0
-118 -130 0
-118 -166 0
-118 -202 0
-154 -190 0
-154 -124 0
-154 -196 0
-154 -130 0
-154 -166 0
-154 -202 0
-190 -124 0
-190 -196 0
-190 -130 0
-190 -166 0
-190 -202 0
-124 -196 0
-124 -130 0
-124 -166 0
-124 -202 0
-196 -130 0
-196 -166 0
-196 -202 0
-130 -166 0
-130 -202 0
-166 -202 0
119 155 191 125 197 131 167 203 0
-119 -155 0
-119 -191 0
-119 -125 0
-119 -197 0
-119 -131 0
-119 -167 0
-119 -203 0
-155 -191 0
-155 -125 0
-155 -197 0
-155 -131 0
-155 -167 0
-155 -203 0
-191 -125 0
-191 -197 0
-191 -131 0
-191 -167 0
-191 -203 0
-125 -197 0
-125 -131 0
-125 -167 0
-125 -203 0
-197 -131 0
-197 -167 0
-197 -203 0
-131 -167 0
-131 -203 0
-167 -203 0
115 0
-116 0
-151 0
152 0
-154 0
-155 0
-153 0
-154 0
-155 0
-153 0
-111 0
-147 0
-183 0
-117 0
-189 0
-123 0
-159 0
-195 0
112 148 184 118 190 124 160 196 0
-112 -148 0
-112 -184 0
-112 -118 0
-112 -190 0
-112 -124 0
-112 -160 0
-112 -196 0
-148 -184 0
-148 -118 0
-148 -190 0
-148 -124 0
-148 -160 0
-148 -196 0
-184 -118 0
-184 -190 0
-184 -124 0
-184 -160 0
-184 -196 0
-118 -190 0
-118 -124 0
-118 -160 0
-118 -196 0
-190 -124 0
-190 -160 0
-190 -196 0
-124 -160 0
-124 -196 0
-160 -196 0
113 149 185 119 191 125 161 197 0
-113 -149 0
-113 -185 0
-113 -119 0
-113 -191 0
-113 -125 0
-113 -161 0
-113 -197 0
-149 -185 0
-149 -119 0
-149 -191 0
-149 -125 0
-149 -161 0
-149 -197 0
-185 -119 0
-185 -191 0
-185 -125 0
-185 -161 0
-185 -197 0
-119 -191 0
-119 -125 0
-119 -161 0
-119 -197 0
-191 -125 0
-191 -161 0
-191 -197 0
-125 -161 0
-125 -197 0
-161 -197 0
109 0
-110 0
-145 0
146 0
-181 0
182 0
-184 0
-185 0
-183 0
-184 0
-185 0
-183 0
-147 0
-219 0
-153 0
-189 0
-225 0
148 220 154 190 0
148 220 154 226 0
148 220 190 226 0
148 154 190 226 0
220 154 190 226 0
-148 -220 -154 0
-148 -220 -190 0
-148 -220 -226 0
-148 -154 -190 0
-148 -154 -226 0
-148 -190 -226 0
-220 -154 -190 0
-220 -154 -226 0
-220 -190 -226 0
-154 -190 -226 0
-149 0
-221 0
-155 0
-191 0
-227 0
-217 0
218 0
-148 0
-149 0
-147 0
-148 0
-149 0
-147 0
-111 0
-183 0
-117 0
-153 0
-189 0
112 184 118 154 190 0
-112 -184 0
-112 -118 0
-112 -154 0
-112 -190 0
-184 -118 0
-184 -154 0
-184 -190 0
-118 -154 0
-118 -190 0
-154 -190 0
-113 0
-185 0
-119 0
-155 0
-191 0
-112 0
-113 0
-111 0
-112 0
-113 0
-111 0
75 147 81 117 153 0
-75 -147 0
-75 -81 0
-75 -117 0
-75 -153 0
-147 -81 0
-147 -117 0
-147 -153 0
-81 -117 0
-81 -153 0
-117 -153 0
-76 0
-148 0
-82 0
-118 0
-154 0
77 149 83 119 155 0
-77 -149 0
-77 -83 0
-77 -119 0
-77 -155 0
-149 -83 0
-149 -119 0
-149 -155 0
-83 -119 0
-83 -155 0
-119 -155 0
-118 0
-119 0
-117 0
-118 0
-119 0
-117 0
75 111 147 81 153 87 123 159 0
-75 -111 0
-75 -147 0
-75 -81 0
-75 -153 0
-75 -87 0
-75 -123 0
-75 -159 0
-111 -147 0
-111 -81 0
-111 -153 0
-111 -87 0
-111 -123 0
-111 -159 0
-147 -81 0
-147 -153 0
-147 -87 0
-147 -123 0
-147 -159 0
-81 -153 0
-81 -87 0
-81 -123 0
-81 -159 0
-153 -87 0
-153 -123 0
-153 -159 0
-87 -123 0
-87 -159 0
-123 -159 0
76 112 148 82 154 88 124 160 0
-76 -112 0
-76 -148 0
-76 -82 0
-76 -154 0
-76 -88 0
-76 -124 0
-76 -160 0
-112 -148 0
-112 -82 0
-112 -154 0
-112 -88 0
-112 -124 0
-112 -160 0
-148 -82 0
-148 -154 0
-148 -88 0
-148 -124 0
-148 -160 0
-82 -154 0
-82 -88 0
-82 -124 0
-82 -160 0
-154 -88 0
-154 -124 0
-154 -160 0
-88 -124 0
-88 -160 0
-124 -160 0
77 113 149 83 155 89 125 161 0
-77 -113 0
-77 -149 0
-77 -83 0
-77 -155 0
-77 -89 0
-77 -125 0
-77 -161 0
-113 -149 0
-113 -83 0
-113 -155 0
-113 -89 0
-113 -125 0
-113 -161 0
-149 -83 0
-149 -155 0
-149 -89 0
-149 -125 0
-149 -161 0
-83 -155 0
-83 -89 0
-83 -125 0
-83 -161 0
-155 -89 0
-155 -125 0
-155 -161 0
-89 -125 0
-89 -161 0
-125 -161 0
-208 0
-209 0
-207 0
-208 0
-209 0
-207 0
-165 0
-201 0
-237 0
-171 0
-243 0
-177 0
-213 0
-249 0
166 202 238 172 244 178 214 250 0
-166 -202 0
-166 -238 0
-166 -172 0
-166 -244 0
-166 -178 0
-166 -214 0
-166 -250 0
-202 -238 0
-202 -172 0
-202 -244 0
-202 -178 0
-202 -214 0
-202 -250 0
-238 -172 0
-238 -244 0
-238 -178 0
-238 -214 0
-238 -250 0
-172 -244 0
-172 -178 0
-172 -214 0
-172 -250 0
-244 -178 0
-244 -214 0
-244 -250 0
-178 -214 0
-178 -250 0
-214 -250 0
-167 0
-203 0
-239 0
-173 0
-245 0
-179 0
-215 0
-251 0
141 0
-142 0
-143 0
105 0
-106 0
-107 0
-172 0
-173 0
-171 0
-172 0
-173 0
-171 0
129 165 201 135 207 141 177 213 0
-129 -165 0
-129 -201 0
-129 -135 0
-129 -207 0
-129 -141 0
-129 -177 0
-129 -213 0
-165 -201 0
-165 -135 0
-165 -207 0
-165 -141 0
-165 -177 0
-165 -213 0
-201 -135 0
-201 -207 0
-201 -141 0
-201 -177 0
-201 -213 0
-135 -207 0
-135 -141 0
-135 -177 0
-135 -213 0
-207 -141 0
-207 -177 0
-207 -213 0
-141 -177 0
-141 -213 0
-177 -213 0
-130 0
-166 0
-202 0
-136 0
-208 0
-142 0
-178 0
-214 0
-131 0
-167 0
-203 0
-137 0
-209 0
-143 0
-179 0
-215 0
-166 0
-167 0
-165 0
-166 0
-167 0
-165 0
-123 0
-159 0
-195 0
-129 0
-201 0
-135 0
-171 0
-207 0
-124 0
-160 0
-196 0
-130 0
-202 0
-136 0
-172 0
-208 0
125 161 197 131 203 137 173 209 0
-125 -161 0
-125 -197 0
-125 -131 0
-125 -203 0
-125 -137 0
-125 -173 0
-125 -209 0
-161 -197 0
-161 -131 0
-161 -203 0
-161 -137 0
-161 -173 0
-161 -209 0
-197 -131 0
-197 -203 0
-197 -137 0
-197 -173 0
-197 -209 0
-131 -203 0
-131 -137 0
-131 -173 0
-131 -209 0
-203 -137 0
-203 -173 0
-203 -209 0
-137 -173 0
-137 -209 0
-173 -209 0
-64 0
-65 0
-63 0
-64 0
-65 0
-63 0
21 57 93 27 99 33 69 105 0
-21 -57 0
-21 -93 0
-21 -27 0
-21 -99 0
-21 -33 0
-21 -69 0
-21 -105 0
-57 -93 0
-57 -27 0
-57 -99 0
-57 -33 0
-57 -69 0
-57 -105 0
-93 -27 0
-93 -99 0
-93 -33 0
-93 -69 0
-93 -105 0
-27 -99 0
-27 -33 0
-27 -69 0
-27 -105 0
-99 -33 0
-99 -69 0
-99 -105 0
-33 -69 0
-33 -105 0
-69 -105 0
-22 0
-58 0
-94 0
-28 0
-100 0
-34 0
-70 0
-106 0
23 59 95 29 101 35 71 0
23 59 95 29 101 35 107 0
23 59 95 29 101 71 107 0
23 59 95 29 35 71 107 0
23 59 95 101 35 71 107 0
23 59 29 101 35 71 107 0
23 95 29 101 35 71 107 0
59 95 29 101 35 71 107 0
-23 -59 -95 0
-23 -59 -29 0
-23 -59 -101 0
-23 -59 -35 0
-23 -59 -71 0
-23 -59 -107 0
-23 -95 -29 0
-23 -95 -101 0
-23 -95 -35 0
-23 -95 -71 0
-23 -95 -107 0
-23 -29 -101 0
-23 -29 -35 0
-23 -29 -71 0
-23 -29 -107 0
-23 -101 -35 0
-23 -101 -71 0
-23 -101 -107 0
-23 -35 -71 0
-23 -35 -107 0
-23 -71 -107 0
-59 -95 -29 0
-59 -95 -101 0
-59 -95 -35 0
-59 -95 -71 0
-59 -95 -107 0
-59 -29 -101 0
-59 -29 -35 0
-59 -29 -71 0
-59 -29 -107 0
-59 -101 -35 0
-59 -101 -71 0
-59 -101 -107 0
-59 -35 -71 0
-59 -35 -107 0
-59 -71 -107 0
-95 -29 -101 0
-95 -29 -35 0
-95 -29 -71 0
-95 -29 -107 0
-95 -101 -35 0
-95 -101 -71 0
-95 -101 -107 0
-95 -35 -71 0
-95 -35 -107 0
-95 -71 -107 0
-29 -101 -35 0
-29 -101 -71 0
-29 -101 -107 0
-29 -35 -71 0
-29 -35 -107 0
-29 -71 -107 0
-101 -35 -71 0
-101 -35 -107 0
-101 -71 -107 0
-35 -71 -107 0
25 0
-26 0
31 0
-32 0
-130 0
-131 0
-129 0
-130 0
-131 0
-129 0
-87 0
-123 0
-159 0
-93 0
-165 0
-99 0
-135 0
-171 0
88 124 160 94 166 100 136 172 0
-88 -124 0
-88 -160 0
-88 -94 0
-88 -166 0
-88 -100 0
-88 -136 0
-88 -172 0
-124 -160 0
-124 -94 0
-124 -166 0
-124 -100 0
-124 -136 0
-124 -172 0
-160 -94 0
-160 -166 0
-160 -100 0
-160 -136 0
-160 -172 0
-94 -166 0
-94 -100 0
-94 -136 0
-94 -172 0
-166 -100 0
-166 -136 0
-166 -172 0
-100 -136 0
-100 -172 0
-136 -172 0
-89 0
-125 0
-161 0
-95 0
-167 0
-101 0
-137 0
-173 0
-226 0
